c FILE /home/rafael/Documents/HappySet/MIHS/inputs/happygen/output/graph_scale_free_k4_p0.3_v100_20241127_083828.txt
c SOURCE This is a scale-free graph formed for the happy graph colouring problem.
c DESCRIPTION It was generated using the problem generator of Rhyd Lewis
c
c GRAPH STATS
c Seed                             = 1987395590
c Number of Nodes                  = 100
c Number of colours k              = 4
c Number of pre-assignments        = 30
c Number of links per new node     = 5
c Density                          = 0.0979798
c 
c The degrees of nodes 1 to 100, respectively, are as follows 
c [33, 32, 31, 31, 29, 28, 27, 21, 21, 21, 19, 17, 16, 15, 15, 14, 14, 13, 13, 13, 12, 12, 11, 11, 11, 11, 
c  11, 10, 10, 10, 10, 10, 9, 9, 9, 9, 9, 9, 8, 8, 8, 8, 8, 8, 7, 7, 7, 7, 7, 7, 7, 
c  7, 6, 6, 6, 6, 6, 6, 6, 6, 6, 6, 6, 6, 6, 6, 6, 6, 6, 6, 6, 6, 5, 5, 5, 5, 
c  5, 5, 5, 5, 5, 5, 5, 5, 5, 5, 5, 5, 5, 5, 5, 5, 5, 5, 5, 5, 5, 5, 5, 5] 
c  
p edge 100 485 4
e 1 2
e 1 3
e 1 5
e 1 6
e 1 7
e 1 9
e 1 15
e 1 16
e 1 18
e 1 19
e 1 22
e 1 25
e 1 33
e 1 34
e 1 40
e 1 43
e 1 47
e 1 49
e 1 50
e 1 53
e 1 56
e 1 57
e 1 62
e 1 74
e 1 77
e 1 80
e 1 82
e 1 86
e 1 88
e 1 89
e 1 90
e 1 96
e 1 99
e 2 3
e 2 4
e 2 5
e 2 6
e 2 7
e 2 8
e 2 10
e 2 13
e 2 14
e 2 15
e 2 17
e 2 20
e 2 21
e 2 24
e 2 29
e 2 33
e 2 34
e 2 45
e 2 47
e 2 50
e 2 54
e 2 60
e 2 64
e 2 68
e 2 73
e 2 74
e 2 75
e 2 78
e 2 88
e 2 93
e 2 97
e 3 4
e 3 5
e 3 6
e 3 7
e 3 8
e 3 9
e 3 10
e 3 11
e 3 12
e 3 13
e 3 16
e 3 17
e 3 19
e 3 24
e 3 26
e 3 29
e 3 37
e 3 44
e 3 48
e 3 54
e 3 57
e 3 59
e 3 73
e 3 74
e 3 76
e 3 77
e 3 86
e 3 91
e 3 97
e 4 5
e 4 6
e 4 7
e 4 8
e 4 10
e 4 13
e 4 14
e 4 17
e 4 20
e 4 25
e 4 26
e 4 27
e 4 31
e 4 32
e 4 36
e 4 42
e 4 45
e 4 47
e 4 48
e 4 49
e 4 62
e 4 66
e 4 77
e 4 78
e 4 81
e 4 82
e 4 90
e 4 92
e 4 96
e 5 6
e 5 8
e 5 11
e 5 13
e 5 14
e 5 16
e 5 17
e 5 18
e 5 19
e 5 22
e 5 27
e 5 29
e 5 32
e 5 36
e 5 38
e 5 42
e 5 43
e 5 52
e 5 53
e 5 64
e 5 65
e 5 81
e 5 89
e 5 98
e 5 99
e 6 7
e 6 8
e 6 9
e 6 11
e 6 13
e 6 16
e 6 18
e 6 19
e 6 20
e 6 22
e 6 23
e 6 24
e 6 25
e 6 33
e 6 34
e 6 35
e 6 42
e 6 45
e 6 53
e 6 58
e 6 66
e 6 84
e 6 92
e 7 8
e 7 9
e 7 10
e 7 11
e 7 14
e 7 17
e 7 27
e 7 29
e 7 30
e 7 32
e 7 37
e 7 39
e 7 44
e 7 45
e 7 50
e 7 51
e 7 62
e 7 69
e 7 71
e 7 87
e 7 91
e 7 95
e 8 11
e 8 12
e 8 16
e 8 18
e 8 22
e 8 28
e 8 33
e 8 38
e 8 41
e 8 53
e 8 65
e 8 84
e 8 85
e 8 87
e 8 90
e 9 11
e 9 14
e 9 15
e 9 22
e 9 23
e 9 26
e 9 28
e 9 36
e 9 43
e 9 46
e 9 55
e 9 69
e 9 75
e 9 80
e 9 85
e 9 86
e 9 99
e 10 16
e 10 21
e 10 23
e 10 30
e 10 35
e 10 38
e 10 39
e 10 40
e 10 42
e 10 43
e 10 49
e 10 54
e 10 72
e 10 74
e 10 79
e 10 82
e 10 83
e 11 12
e 11 19
e 11 23
e 11 25
e 11 46
e 11 51
e 11 53
e 11 63
e 11 70
e 11 87
e 11 88
e 11 91
e 11 96
e 12 15
e 12 18
e 12 21
e 12 27
e 12 31
e 12 34
e 12 35
e 12 39
e 12 63
e 12 72
e 12 76
e 12 97
e 12 98
e 12 99
e 13 15
e 13 23
e 13 41
e 13 47
e 13 48
e 13 52
e 13 57
e 13 66
e 13 68
e 13 73
e 13 100
e 14 27
e 14 30
e 14 39
e 14 40
e 14 54
e 14 71
e 14 73
e 14 79
e 14 87
e 14 90
e 15 17
e 15 21
e 15 28
e 15 33
e 15 63
e 15 67
e 15 81
e 15 83
e 15 94
e 15 100
e 16 24
e 16 41
e 16 57
e 16 61
e 16 62
e 16 65
e 16 88
e 16 89
e 17 20
e 17 21
e 17 38
e 17 45
e 17 64
e 17 76
e 17 77
e 17 94
e 18 33
e 18 41
e 18 46
e 18 54
e 18 68
e 18 72
e 18 74
e 18 91
e 19 32
e 19 55
e 19 64
e 19 73
e 19 83
e 19 84
e 19 96
e 19 97
e 20 23
e 20 26
e 20 37
e 20 50
e 20 58
e 20 69
e 20 71
e 20 93
e 20 94
e 21 28
e 21 31
e 21 35
e 21 37
e 21 46
e 21 78
e 21 98
e 22 26
e 22 47
e 22 51
e 22 56
e 22 59
e 22 75
e 22 76
e 23 24
e 23 30
e 23 31
e 23 55
e 23 98
e 24 29
e 24 31
e 24 36
e 24 85
e 24 96
e 24 98
e 25 39
e 25 49
e 25 55
e 25 58
e 25 70
e 25 79
e 25 89
e 26 36
e 26 51
e 26 72
e 26 76
e 26 79
e 26 89
e 27 38
e 27 61
e 27 80
e 27 81
e 27 94
e 27 99
e 28 33
e 28 48
e 28 63
e 28 66
e 28 87
e 28 100
e 29 30
e 29 61
e 29 75
e 29 77
e 29 80
e 30 44
e 30 46
e 30 56
e 30 62
e 30 81
e 31 41
e 31 44
e 31 50
e 31 75
e 31 100
e 32 34
e 32 37
e 32 42
e 32 58
e 32 78
e 32 95
e 33 34
e 33 39
e 34 40
e 34 67
e 34 80
e 35 41
e 35 43
e 35 59
e 35 64
e 35 78
e 36 48
e 36 49
e 36 56
e 36 63
e 37 56
e 37 65
e 37 79
e 37 85
e 38 51
e 38 52
e 38 67
e 38 92
e 39 40
e 39 55
e 40 68
e 40 82
e 40 91
e 41 61
e 41 86
e 42 59
e 42 85
e 42 93
e 43 44
e 43 60
e 43 70
e 44 65
e 44 67
e 44 83
e 45 57
e 45 61
e 46 52
e 46 68
e 47 60
e 47 92
e 48 58
e 48 83
e 49 60
e 49 88
e 50 71
e 50 92
e 51 86
e 51 94
e 52 70
e 52 95
e 52 100
e 53 70
e 54 82
e 55 59
e 56 69
e 57 84
e 58 95
e 59 60
e 60 97
e 61 67
e 62 66
e 63 84
e 64 90
e 65 69
e 66 93
e 67 70
e 68 95
e 69 71
e 71 72
e 72 93
n 13 1
n 16 1
n 20 2
n 21 4
n 25 1
n 28 4
n 32 4
n 36 3
n 38 1
n 39 1
n 45 1
n 53 2
n 54 3
n 55 1
n 57 1
n 60 2
n 67 1
n 68 1
n 69 2
n 75 1
n 77 3
n 78 4
n 81 3
n 83 2
n 84 1
n 85 3
n 91 2
n 93 2
n 94 2
n 98 4
